p cnf 123 408
3 -1 0
3 -2 0
1 2 -3 0
7 -5 0
7 6 0
5 -6 -7 0
7 -2 -8 0
-7 2 -8 0
7 2 8 0
-7 -2 8 0
-4 8 -9 0
4 -8 -9 0
-4 -8 9 0
4 8 9 0
10 3 0
10 9 0
-3 -9 -10 0
-12 -10 0
-12 -11 0
10 11 12 0
-14 13 0
-14 2 0
-13 -2 14 0
-5 -15 -16 0
5 15 -16 0
-5 15 16 0
5 -15 16 0
18 -16 0
18 17 0
16 -17 -18 0
-19 -14 0
-19 -18 0
14 18 19 0
20 19 0
20 -8 0
-19 8 -20 0
21 -7 0
21 -5 0
7 5 -21 0
23 -18 0
23 -22 0
18 22 -23 0
23 24 -25 0
-23 -24 -25 0
23 -24 25 0
-23 24 25 0
-8 -25 -26 0
8 25 -26 0
-8 25 26 0
8 -25 26 0
27 16 0
27 13 0
-16 -13 -27 0
28 17 0
28 -27 0
-17 27 -28 0
-26 28 -29 0
26 -28 -29 0
-26 -28 29 0
26 28 29 0
30 29 0
30 14 0
-29 -14 -30 0
33 -31 0
33 -32 0
31 32 -33 0
30 -33 -34 0
-30 33 -34 0
30 33 34 0
-30 -33 34 0
-21 34 -35 0
21 -34 -35 0
-21 -34 35 0
21 34 35 0
37 -35 0
37 -36 0
35 36 -37 0
-20 37 -38 0
20 -37 -38 0
-20 -37 38 0
20 37 38 0
39 7 0
39 6 0
-7 -6 -39 0
-40 38 0
-40 -39 0
-38 39 40 0
26 5 -41 0
-26 -5 -41 0
26 -5 41 0
-26 5 41 0
42 24 0
42 -41 0
-24 41 -42 0
43 -40 0
43 -42 0
40 42 -43 0
-44 28 0
-44 -19 0
-28 19 44 0
44 -31 -45 0
-44 31 -45 0
44 31 45 0
-44 -31 45 0
-46 -9 0
-46 45 0
9 -45 46 0
-47 43 0
-47 46 0
-43 -46 47 0
48 -18 0
48 -17 0
18 17 -48 0
-49 -48 0
-49 -48 0
48 49 0
50 -47 0
50 49 0
47 -49 -50 0
-51 12 0
-51 50 0
-12 -50 51 0
-52 34 0
-52 7 0
-34 -7 52 0
54 -53 0
54 -27 0
53 27 -54 0
54 18 -55 0
-54 -18 -55 0
54 -18 55 0
-54 18 55 0
56 52 0
56 -55 0
-52 55 -56 0
-57 -51 0
-57 -56 0
51 56 57 0
-58 29 0
-58 3 0
-29 -3 58 0
59 58 0
59 -48 0
-58 48 -59 0
-60 -4 0
-60 32 0
4 -32 60 0
-59 -60 -61 0
59 60 -61 0
-59 60 61 0
59 -60 61 0
63 53 0
63 22 0
-53 -22 -63 0
-64 -62 0
-64 -63 0
62 63 64 0
65 -26 0
65 -19 0
26 19 -65 0
-66 64 0
-66 -65 0
-64 65 66 0
-67 -15 0
-67 2 0
15 -2 67 0
66 67 -68 0
-66 -67 -68 0
66 -67 68 0
-66 67 68 0
69 15 0
69 7 0
-15 -7 -69 0
-70 53 0
-70 1 0
-53 -1 70 0
69 -70 -71 0
-69 70 -71 0
69 70 71 0
-69 -70 71 0
-8 23 -72 0
8 -23 -72 0
-8 -23 72 0
8 23 72 0
73 1 0
73 32 0
-1 -32 -73 0
73 -9 -74 0
-73 9 -74 0
73 9 74 0
-73 -9 74 0
75 72 0
75 74 0
-72 -74 -75 0
76 -71 0
76 -75 0
71 75 -76 0
77 5 0
77 15 0
-5 -15 -77 0
-78 -77 0
-78 -64 0
77 64 78 0
79 -76 0
79 78 0
76 -78 -79 0
80 73 0
80 -54 0
-73 54 -80 0
-81 -80 0
-81 -28 0
80 28 81 0
82 -79 0
82 -81 0
79 81 -82 0
83 -68 0
83 82 0
68 -82 -83 0
61 -83 -84 0
-61 83 -84 0
61 83 84 0
-61 -83 84 0
-57 -84 -85 0
57 84 -85 0
-57 84 85 0
57 -84 85 0
86 -8 0
86 65 0
8 -65 -86 0
87 -14 0
87 -58 0
14 58 -87 0
-87 -13 -88 0
87 13 -88 0
-87 13 88 0
87 -13 88 0
89 88 0
89 -21 0
-88 21 -89 0
-90 24 0
-90 -31 0
-24 31 90 0
-11 48 -91 0
11 -48 -91 0
-11 -48 91 0
11 48 91 0
92 -22 0
92 -91 0
22 91 -92 0
-90 92 -93 0
90 -92 -93 0
-90 -92 93 0
90 92 93 0
94 89 0
94 93 0
-89 -93 -94 0
-95 65 0
-95 -6 0
-65 6 95 0
-96 -15 0
-96 -62 0
15 62 96 0
95 96 -97 0
-95 -96 -97 0
95 -96 97 0
-95 96 97 0
-98 94 0
-98 97 0
-94 -97 98 0
-86 -98 -99 0
86 98 -99 0
-86 98 99 0
86 -98 99 0
6 15 -100 0
-6 -15 -100 0
6 -15 100 0
-6 15 100 0
-101 13 0
-101 -100 0
-13 100 101 0
-102 -13 0
-102 45 0
13 -45 102 0
21 13 -103 0
-21 -13 -103 0
21 -13 103 0
-21 13 103 0
-104 -103 0
-104 -77 0
103 77 104 0
105 102 0
105 104 0
-102 -104 -105 0
101 -105 -106 0
-101 105 -106 0
101 105 106 0
-101 -105 106 0
-107 -8 0
-107 63 0
8 -63 107 0
108 8 0
108 -14 0
-8 14 -108 0
109 -107 0
109 108 0
107 -108 -109 0
110 -106 0
110 -109 0
106 109 -110 0
-99 -110 -111 0
99 110 -111 0
-99 110 111 0
99 -110 111 0
-53 25 -112 0
53 -25 -112 0
-53 -25 112 0
53 25 112 0
-113 80 0
-113 -112 0
-80 112 113 0
114 111 0
114 113 0
-111 -113 -114 0
-115 27 0
-115 24 0
-27 -24 115 0
-114 -115 -116 0
114 115 -116 0
-114 115 116 0
114 -115 116 0
-11 14 -117 0
11 -14 -117 0
-11 -14 117 0
11 14 117 0
-118 63 0
-118 -22 0
-63 22 118 0
-119 117 0
-119 118 0
-117 -118 119 0
120 -22 0
120 -2 0
22 2 -120 0
119 120 -121 0
-119 -120 -121 0
119 -120 121 0
-119 120 121 0
-122 -116 0
-122 121 0
116 -121 122 0
85 -122 -123 0
-85 122 -123 0
85 122 123 0
-85 -122 123 0
-120 -105 106 66 64 5 0
100 76 30 0
-25 -95 9 30 0
30 -96 -21 26 18 111 0
-81 51 0
13 70 113 47 -61 87 0
45 -111 0
21 103 -1 92 0
19 -5 -15 93 0
-56 -43 -47 0
-89 63 0
22 -28 -108 -27 47 0
32 -26 -58 77 -4 -121 0
14 -77 0
-92 -22 -117 -122 0
32 -45 99 95 54 105 0
53 -123 97 0
32 79 -105 -52 0
52 -14 0
25 15 0
111 -52 40 0
-117 -39 0
86 -89 104 30 -50 110 0
-91 9 44 -67 -40 0
-60 58 38 -120 -89 112 0
-44 -114 0
-81 56 -31 0
-105 -85 0
6 99 -22 -30 31 0
102 -73 -44 41 0
-41 -109 -62 -97 0
66 -41 0
34 -113 40 32 96 -75 0
-112 -26 10 -103 0
111 -118 40 0
31 71 18 73 -97 -50 0
-69 116 100 0
-89 114 -90 117 0
-81 -76 -62 -106 60 0
10 117 -107 0
-121 10 -79 -91 0
103 112 -108 -8 117 -109 0
-105 -67 -25 0
121 116 0
19 -72 0
42 93 -28 57 55 0
39 62 -111 -107 0
-24 -123 -26 29 35 0
-8 50 0
-28 54 -93 -84 0
21 72 67 39 0
-49 47 -99 69 -12 0
-108 -70 111 98 0
123 0
